14,6	0,0	17,3	15,7	0,0	0,0	0,0	0,0	0,0	12,9
11,5	7,1	0,0	12,5	6,3	0,0	0,0	7,3	0,0	0,0
0,0	0,0	17,4	0,0	18,2	7,2	0,0	0,0	15,9	0,0
9,8	0,0	19,6	0,0	0,0	0,0	10,3	0,0	0,0	0,0
0,0	16,8	0,0	10,7	14,7	0,0	0,0	7,0	0,0	0,0
0,0	6,1	11,5	0,0	9,3	16,1	0,0	0,0	13,5	0,0
0,0	16,2	0,0	7,7	0,0	0,0	10,9	0,0	0,0	5,4
6,4	0,0	12,1	0,0	0,0	0,0	0,0	0,0	0,0	15,2
0,0	18,3	0,0	14,0	19,6	0,0	0,0	11,2	0,0	0,0
0,0	0,0	10,4	0,0	0,0	9,5	18,9	0,0	0,0	11,1
									
5,0	3,5	3,8	2,7	4,2	3,7	3,1	4,7	3,4	3,7
